Route #1: 30 17 12 41 34 16 43 35 21 42 22 32 2 28 39 31 3 26 45 13 19 36
Route #2: 24 46 7 5
Route #3: 44 27 15 14
Route #4: 1 20 25 9
Route #5: 37 33 38 29 6 23 8 40 4 11
Route #6: 10 18
Route #7: 
cost 1407.8070168812924
